68
0 12 9 50 21 37 62 60 20 48 
53 11 65 39 28 46 47 67 23 40 
2 64 45 66 14 1 49 44 25 42 
3 56 55 38 29 43 63 15 8 6 
13 5 16 52 18 35 4 30 24 51 
7 19 58 22 36 31 34 32 54 61 
26 17 41 33 10 59 57 27 
